N = 16;
M = 36;
Edge_Start = [1, 1, 2, 2, 3, 3, 3, 4, 4, 5, 5, 6, 6, 7, 7, 7, 8, 8, 8, 9, 9, 9, 10, 10, 10, 11, 12, 12, 13, 13, 14, 14, 14, 15, 15, 16];
Edge_End = [2, 6, 1, 3, 2, 4, 8, 3, 5, 4, 10, 1, 7, 6, 8, 12, 3, 7, 9, 8, 10, 14, 5, 9, 11, 10, 7, 13, 12, 14, 9, 13, 15, 14, 16, 15];
L = [14, 7, 14, 12, 12, 6, 6, 6, 14, 14, 18, 7, 12, 12, 18, 10, 6, 18, 10, 10, 18, 16, 18, 18, 10, 10, 10, 2, 2, 15, 16, 15, 7, 7, 15, 15];
T = [6, 11, 6, 18, 18, 1, 5, 1, 16, 16, 29, 11, 15, 15, 26, 14, 5, 26, 9, 9, 7, 11, 29, 7, 1, 1, 14, 1, 1, 19, 11, 19, 8, 8, 15, 15];
Lower_Bound = [0, 6, 24, 26, 41, 11, 27, 29, 38, 45, 46, 40, 43, 50, 58, 73];
Upper_Bound = [2, 7, 25, 40, 44, 17, 33, 32, 51, 48, 54, 46, 44, 51, 64, 82];
Start = 1;
End = 16;
Time = 82;
